500
    1   218   218
    2    95    95
    3   419   419
    4   667   667
    5     5     5
    6   177   177
    7   426   426
    8   321   321
    9    15    15
   10   722   722
   11   464   464
   12   974   974
   13   528   528
   14   522   522
   15   818   818
   16   792   792
   17   760   760
   18   807   807
   19   721   721
   20   663   663
   21   910   910
   22   864   864
   23   458   458
   24   664   664
   25   703   703
   26   220   220
   27   571   571
   28   311   311
   29   767   767
   30   504   504
   31    91    91
   32   697   697
   33   272   272
   34   527   527
   35   807   807
   36   111   111
   37   724   724
   38    59    59
   39   549   549
   40   254   254
   41   664   664
   42   946   946
   43    78    78
   44   772   772
   45   447   447
   46   237   237
   47   757   757
   48   981   981
   49   319   319
   50   946   946
   51   207   207
   52   707   707
   53   901   901
   54   433   433
   55   726   726
   56    76    76
   57   560   560
   58   611   611
   59   446   446
   60   653   653
   61   380   380
   62   398   398
   63   842   842
   64   221   221
   65   246   246
   66   989   989
   67   908   908
   68   756   756
   69   303   303
   70   244   244
   71   376   376
   72    82    82
   73   655   655
   74   850   850
   75   947   947
   76   996   996
   77   679   679
   78   655   655
   79   797   797
   80   776   776
   81     2     2
   82    69    69
   83   920   920
   84   850   850
   85   665   665
   86   114   114
   87   812   812
   88   792   792
   89   682   682
   90   195   195
   91   953   953
   92   136   136
   93   540   540
   94   605   605
   95   472   472
   96   145   145
   97    50    50
   98    45    45
   99   823   823
  100   390   390
  101   337   337
  102   256   256
  103    23    23
  104   999   999
  105   816   816
  106   708   708
  107   499   499
  108   898   898
  109   787   787
  110   269   269
  111   598   598
  112   975   975
  113   980   980
  114    27    27
  115   465   465
  116   577   577
  117    71    71
  118   633   633
  119   713   713
  120   232   232
  121   455   455
  122   825   825
  123    81    81
  124   531   531
  125   434   434
  126   282   282
  127   409   409
  128   674   674
  129   942   942
  130   827   827
  131   595   595
  132   850   850
  133   711   711
  134   746   746
  135   829   829
  136     2     2
  137   287   287
  138   973   973
  139   240   240
  140    58    58
  141   960   960
  142   186   186
  143   940   940
  144   844   844
  145   105   105
  146   770   770
  147   806   806
  148   378   378
  149   658   658
  150   279   279
  151   327   327
  152   615   615
  153   933   933
  154   767   767
  155   218   218
  156   914   914
  157   475   475
  158   977   977
  159   633   633
  160   924   924
  161   792   792
  162   364   364
  163   124   124
  164    59    59
  165   933   933
  166   710   710
  167   312   312
  168   559   559
  169   856   856
  170   762   762
  171   496   496
  172   385   385
  173    50    50
  174    91    91
  175   715   715
  176   932   932
  177   509   509
  178   829   829
  179   138   138
  180   995   995
  181   271   271
  182   155   155
  183   515   515
  184   826   826
  185   199   199
  186   458   458
  187    14    14
  188   345   345
  189   363   363
  190   797   797
  191   948   948
  192   563   563
  193   828   828
  194   314   314
  195   799   799
  196   397   397
  197   943   943
  198   881   881
  199   267   267
  200   449   449
  201   584   584
  202   917   917
  203   439   439
  204   930   930
  205   509   509
  206    99    99
  207   103   103
  208   922   922
  209   356   356
  210   448   448
  211   665   665
  212    56    56
  213   338   338
  214    63    63
  215   321   321
  216     5     5
  217   281   281
  218   671   671
  219   564   564
  220   781   781
  221   245   245
  222   626   626
  223   934   934
  224   795   795
  225   484   484
  226    34    34
  227   728   728
  228   244   244
  229  1000  1000
  230   335   335
  231   841   841
  232     6     6
  233   170   170
  234   364   364
  235   440   440
  236   282   282
  237   836   836
  238    55    55
  239   979   979
  240   708   708
  241   522   522
  242   190   190
  243   287   287
  244   947   947
  245   726   726
  246    15    15
  247   909   909
  248   340   340
  249   232   232
  250   232   232
  251   501   501
  252   409   409
  253   278   278
  254   365   365
  255   130   130
  256   679   679
  257   517   517
  258   880   880
  259   522   522
  260   797   797
  261     4     4
  262   883   883
  263    24    24
  264   480   480
  265   257   257
  266   105   105
  267   727   727
  268    35    35
  269   355   355
  270   762   762
  271   485   485
  272   380   380
  273   420   420
  274   397   397
  275     9     9
  276   810   810
  277  1000  1000
  278   720   720
  279   971   971
  280   850   850
  281   806   806
  282   531   531
  283   767   767
  284    41    41
  285   410   410
  286   522   522
  287   510   510
  288   708   708
  289   324   324
  290   761   761
  291   409   409
  292   707   707
  293   593   593
  294   882   882
  295   874   874
  296   148   148
  297   203   203
  298   793   793
  299   753   753
  300   491   491
  301   352   352
  302   945   945
  303   951   951
  304   823   823
  305   612   612
  306    72    72
  307    99    99
  308   216   216
  309   596   596
  310   325   325
  311    79    79
  312   477   477
  313   361   361
  314   578   578
  315   118   118
  316   602   602
  317    52    52
  318   756   756
  319    68    68
  320   326   326
  321   252   252
  322   607   607
  323   249   249
  324   418   418
  325   449   449
  326   351   351
  327   764   764
  328   310   310
  329   548   548
  330   793   793
  331   881   881
  332   262   262
  333    77    77
  334   568   568
  335   998   998
  336   769   769
  337   896   896
  338   627   627
  339   984   984
  340   602   602
  341   677   677
  342   347   347
  343   508   508
  344     7     7
  345   283   283
  346   331   331
  347   236   236
  348   759   759
  349   521   521
  350   816   816
  351    65    65
  352   433   433
  353   937   937
  354   448   448
  355    96    96
  356   623   623
  357    81    81
  358   687   687
  359   826   826
  360    73    73
  361   350   350
  362   108   108
  363   627   627
  364   886   886
  365   415   415
  366   482   482
  367   343   343
  368    30    30
  369   371   371
  370   738   738
  371   628   628
  372   210   210
  373   753   753
  374   846   846
  375   888   888
  376   421   421
  377   978   978
  378   576   576
  379   520   520
  380    36    36
  381   373   373
  382   961   961
  383    25    25
  384   752   752
  385   463   463
  386   414   414
  387   479   479
  388   845   845
  389   860   860
  390   341   341
  391   440   440
  392   218   218
  393   454   454
  394   717   717
  395   236   236
  396   201   201
  397   961   961
  398   931   931
  399    52    52
  400   681   681
  401   537   537
  402   617   617
  403   411   411
  404   318   318
  405   385   385
  406   289   289
  407   501   501
  408   995   995
  409   689   689
  410   767   767
  411   403   403
  412   773   773
  413    99    99
  414   884   884
  415   288   288
  416   496   496
  417   906   906
  418   927   927
  419   708   708
  420   920   920
  421   943   943
  422   422   422
  423   714   714
  424   510   510
  425   585   585
  426   610   610
  427   263   263
  428   770   770
  429   888   888
  430   376   376
  431   610   610
  432    31    31
  433   287   287
  434    84    84
  435   746   746
  436   330   330
  437   284   284
  438   968   968
  439   489   489
  440   932   932
  441   116   116
  442   186   186
  443   115   115
  444   559   559
  445   384   384
  446    68    68
  447   154   154
  448   965   965
  449   398   398
  450   453   453
  451   498   498
  452   652   652
  453   438   438
  454   165   165
  455   436   436
  456   974   974
  457   586   586
  458   237   237
  459   825   825
  460   509   509
  461   872   872
  462   917   917
  463   277   277
  464   412   412
  465   815   815
  466   647   647
  467   157   157
  468   896   896
  469   156   156
  470   776   776
  471   302   302
  472   509   509
  473   952   952
  474   783   783
  475   588   588
  476    53    53
  477   903   903
  478   926   926
  479   451   451
  480   619   619
  481    32    32
  482   430   430
  483   638   638
  484   406   406
  485   676   676
  486   167   167
  487   682   682
  488   209   209
  489   477   477
  490    68    68
  491   341   341
  492    79    79
  493   980   980
  494   173   173
  495   464   464
  496   556   556
  497   319   319
  498   758   758
  499   239   239
  500   478   478
129323
